Test: fpga12_8_sat.cnf
Options: -no-inverting-opt -activity-nl-freq=1
WARNING: for repeatability, setting FPU to use double precision
============================[ Problem Statistics ]=============================
|                                                                             |
|  Number of symmetries:           24                                         |
|  Number of invertingSyms:         0                                         |
|  Number of variables:           144                                         |
|  Number of clauses:             560                                         |
|  Parse time:                   0.00 s                                       |
|                                                                             |
============================[ Search Statistics ]==============================
| Conflicts |          ORIGINAL         |          LEARNT          | Progress |
|           |    Vars  Clauses Literals |    Limit  Clauses Lit/Cl |          |
===============================================================================
|       100 |     144      560     1488 |      205      236     34 |  0.005 % |
|       250 |     144      560     1488 |      225      252     17 |  0.005 % |
===============================================================================
restarts              : 3
conflicts             : 271            (33875 /sec)
symconflicts          : 60             (7500 /sec)
decisions             : 524            (0.00 % random) (65500 /sec)
propagations          : 4069           (508625 /sec)
sympropagations       : 288            (36000 /sec)
conflict literals     : 5982           (5.47 % deleted)
literals     : 5982           (5.47 % deleted)

HEURISTIC USAGES
random                : 0           
activity w/ lookahead : 0           
activity no lookahead : 523         
original sp           : 0           
sym count             : 0           

Memory used           : 5.00 MB
CPU time              : 0.008 s

SATISFIABLE
